<instance format="XCSP3" type="COP">
  <variables>
    <var id="x" note="x is the number of unused bins"> 0..23 </var>
    <array id="b" note="b[i][j] indicates the weight of the jth object put in the ith bin. It is 0 if there is no object at this place." size="[23][3]"> 0 250..258 261..264 266 267 271 273 274 279 281 288 291 292 296 299 300 312 323 328 329 336 347 360 383 389 392 409 413 426 431 442 448 451 454 463 471 472 481 485 487 491 </array>
  </variables>
  <constraints>
    <group>
      <mdd>
        <list> %... </list>
        <transitions> (root,0,n3)(root,250,n3)(root,251,n5)(root,252,n6)(root,253,n6)(root,254,n9)(root,255,n10)(root,256,n12)(root,257,n14)(root,258,n16)(root,261,n18)(root,262,n21)(root,263,n23)(root,264,n24)(root,266,n26)(root,267,n28)(root,271,n30)(root,273,n32)(root,274,n34)(root,279,n37)(root,281,n39)(root,288,n40)(root,291,n43)(root,292,n45)(root,296,n47)(root,299,n49)(root,300,n51)(root,312,n53)(root,323,n54)(root,328,n56)(root,329,n58)(root,336,n60)(root,347,n62)(root,360,n63)(root,383,n64)(root,389,n65)(root,392,n67)(root,409,n68)(root,413,n69)(root,426,n70)(root,431,n71)(root,442,n72)(root,448,n73)(root,451,n74)(root,454,n75)(root,463,n76)(root,471,n77)(root,472,n78)(root,481,n79)(root,485,n80)(root,487,n81)(root,491,n82)(n3,0,n4)(n4,0,nodeT)(n5,0,n4)(n5,250,n4)(n6,0,n4)(n6,250,n4)(n6,251,n7)(n6,252,n8)(n7,0,nodeT)(n7,250,nodeT)(n8,0,nodeT)(n8,250,nodeT)(n8,251,nodeT)(n8,252,nodeT)(n9,0,n4)(n9,250,n4)(n9,251,n7)(n9,252,n8)(n9,253,n8)(n10,0,n4)(n10,250,n4)(n10,251,n7)(n10,252,n8)(n10,253,n8)(n10,254,n11)(n11,0,nodeT)(n11,250,nodeT)(n11,251,nodeT)(n11,252,nodeT)(n11,253,nodeT)(n12,0,n4)(n12,250,n4)(n12,251,n7)(n12,252,n8)(n12,253,n8)(n12,254,n11)(n12,255,n13)(n13,0,nodeT)(n13,250,nodeT)(n13,251,nodeT)(n13,252,nodeT)(n13,253,nodeT)(n13,254,nodeT)(n14,0,n4)(n14,250,n4)(n14,251,n7)(n14,252,n8)(n14,253,n8)(n14,254,n11)(n14,255,n13)(n14,256,n15)(n15,0,nodeT)(n15,250,nodeT)(n15,251,nodeT)(n15,252,nodeT)(n15,253,nodeT)(n15,254,nodeT)(n15,255,nodeT)(n16,0,n4)(n16,250,n4)(n16,251,n7)(n16,252,n8)(n16,253,n8)(n16,254,n11)(n16,255,n13)(n16,256,n15)(n16,257,n17)(n17,0,nodeT)(n17,250,nodeT)(n17,251,nodeT)(n17,252,nodeT)(n17,253,nodeT)(n17,254,nodeT)(n17,255,nodeT)(n17,256,nodeT)(n18,0,n4)(n18,250,n4)(n18,251,n7)(n18,252,n8)(n18,253,n8)(n18,254,n11)(n18,255,n13)(n18,256,n15)(n18,257,n17)(n18,258,n19)(n18,261,n20)(n19,0,nodeT)(n19,250,nodeT)(n19,251,nodeT)(n19,252,nodeT)(n19,253,nodeT)(n19,254,nodeT)(n19,255,nodeT)(n19,256,nodeT)(n19,257,nodeT)(n20,0,nodeT)(n20,250,nodeT)(n20,251,nodeT)(n20,252,nodeT)(n20,253,nodeT)(n20,254,nodeT)(n20,255,nodeT)(n20,256,nodeT)(n20,257,nodeT)(n20,258,nodeT)(n21,0,n4)(n21,250,n4)(n21,251,n7)(n21,252,n8)(n21,253,n8)(n21,254,n11)(n21,255,n13)(n21,256,n15)(n21,257,n17)(n21,258,n19)(n21,261,n22)(n22,0,nodeT)(n22,250,nodeT)(n22,251,nodeT)(n22,252,nodeT)(n22,253,nodeT)(n22,254,nodeT)(n22,255,nodeT)(n22,256,nodeT)(n22,257,nodeT)(n22,258,nodeT)(n22,261,nodeT)(n23,0,n4)(n23,250,n4)(n23,251,n7)(n23,252,n8)(n23,253,n8)(n23,254,n11)(n23,255,n13)(n23,256,n15)(n23,257,n17)(n23,258,n19)(n23,261,n22)(n23,262,n22)(n24,0,n4)(n24,250,n4)(n24,251,n7)(n24,252,n8)(n24,253,n8)(n24,254,n11)(n24,255,n13)(n24,256,n15)(n24,257,n17)(n24,258,n19)(n24,261,n22)(n24,262,n22)(n24,263,n25)(n25,0,nodeT)(n25,250,nodeT)(n25,251,nodeT)(n25,252,nodeT)(n25,253,nodeT)(n25,254,nodeT)(n25,255,nodeT)(n25,256,nodeT)(n25,257,nodeT)(n25,258,nodeT)(n25,261,nodeT)(n25,262,nodeT)(n26,0,n4)(n26,250,n4)(n26,251,n7)(n26,252,n8)(n26,253,n8)(n26,254,n11)(n26,255,n13)(n26,256,n15)(n26,257,n17)(n26,258,n19)(n26,261,n22)(n26,262,n22)(n26,263,n25)(n26,264,n27)(n27,0,nodeT)(n27,250,nodeT)(n27,251,nodeT)(n27,252,nodeT)(n27,253,nodeT)(n27,254,nodeT)(n27,255,nodeT)(n27,256,nodeT)(n27,257,nodeT)(n27,258,nodeT)(n27,261,nodeT)(n27,262,nodeT)(n27,263,nodeT)(n28,0,n4)(n28,250,n4)(n28,251,n7)(n28,252,n8)(n28,253,n8)(n28,254,n11)(n28,255,n13)(n28,256,n15)(n28,257,n17)(n28,258,n19)(n28,261,n22)(n28,262,n22)(n28,263,n25)(n28,264,n27)(n28,266,n29)(n29,0,nodeT)(n29,250,nodeT)(n29,251,nodeT)(n29,252,nodeT)(n29,253,nodeT)(n29,254,nodeT)(n29,255,nodeT)(n29,256,nodeT)(n29,257,nodeT)(n29,258,nodeT)(n29,261,nodeT)(n29,262,nodeT)(n29,263,nodeT)(n29,264,nodeT)(n30,0,n4)(n30,250,n4)(n30,251,n7)(n30,252,n8)(n30,253,n8)(n30,254,n11)(n30,255,n13)(n30,256,n15)(n30,257,n17)(n30,258,n19)(n30,261,n22)(n30,262,n22)(n30,263,n25)(n30,264,n27)(n30,266,n29)(n30,267,n31)(n31,0,nodeT)(n31,250,nodeT)(n31,251,nodeT)(n31,252,nodeT)(n31,253,nodeT)(n31,254,nodeT)(n31,255,nodeT)(n31,256,nodeT)(n31,257,nodeT)(n31,258,nodeT)(n31,261,nodeT)(n31,262,nodeT)(n31,263,nodeT)(n31,264,nodeT)(n31,266,nodeT)(n32,0,n4)(n32,250,n4)(n32,251,n7)(n32,252,n8)(n32,253,n8)(n32,254,n11)(n32,255,n13)(n32,256,n15)(n32,257,n17)(n32,258,n19)(n32,261,n22)(n32,262,n22)(n32,263,n25)(n32,264,n27)(n32,266,n29)(n32,267,n31)(n32,271,n33)(n33,0,nodeT)(n33,250,nodeT)(n33,251,nodeT)(n33,252,nodeT)(n33,253,nodeT)(n33,254,nodeT)(n33,255,nodeT)(n33,256,nodeT)(n33,257,nodeT)(n33,258,nodeT)(n33,261,nodeT)(n33,262,nodeT)(n33,263,nodeT)(n33,264,nodeT)(n33,266,nodeT)(n33,267,nodeT)(n34,0,n4)(n34,250,n4)(n34,251,n7)(n34,252,n8)(n34,253,n8)(n34,254,n11)(n34,255,n13)(n34,256,n15)(n34,257,n17)(n34,258,n19)(n34,261,n22)(n34,262,n22)(n34,263,n25)(n34,264,n27)(n34,266,n29)(n34,267,n31)(n34,271,n33)(n34,273,n35)(n34,274,n36)(n35,0,nodeT)(n35,250,nodeT)(n35,251,nodeT)(n35,252,nodeT)(n35,253,nodeT)(n35,254,nodeT)(n35,255,nodeT)(n35,256,nodeT)(n35,257,nodeT)(n35,258,nodeT)(n35,261,nodeT)(n35,262,nodeT)(n35,263,nodeT)(n35,264,nodeT)(n35,266,nodeT)(n35,267,nodeT)(n35,271,nodeT)(n36,0,nodeT)(n36,250,nodeT)(n36,251,nodeT)(n36,252,nodeT)(n36,253,nodeT)(n36,254,nodeT)(n36,255,nodeT)(n36,256,nodeT)(n36,257,nodeT)(n36,258,nodeT)(n36,261,nodeT)(n36,262,nodeT)(n36,263,nodeT)(n36,264,nodeT)(n36,266,nodeT)(n36,267,nodeT)(n36,271,nodeT)(n36,273,nodeT)(n37,0,n4)(n37,250,n4)(n37,251,n7)(n37,252,n8)(n37,253,n8)(n37,254,n11)(n37,255,n13)(n37,256,n15)(n37,257,n17)(n37,258,n19)(n37,261,n22)(n37,262,n22)(n37,263,n25)(n37,264,n27)(n37,266,n29)(n37,267,n31)(n37,271,n33)(n37,273,n35)(n37,274,n38)(n38,0,nodeT)(n38,250,nodeT)(n38,251,nodeT)(n38,252,nodeT)(n38,253,nodeT)(n38,254,nodeT)(n38,255,nodeT)(n38,256,nodeT)(n38,257,nodeT)(n38,258,nodeT)(n38,261,nodeT)(n38,262,nodeT)(n38,263,nodeT)(n38,264,nodeT)(n38,266,nodeT)(n38,267,nodeT)(n38,271,nodeT)(n38,273,nodeT)(n38,274,nodeT)(n39,0,n4)(n39,250,n4)(n39,251,n7)(n39,252,n8)(n39,253,n8)(n39,254,n11)(n39,255,n13)(n39,256,n15)(n39,257,n17)(n39,258,n19)(n39,261,n22)(n39,262,n22)(n39,263,n25)(n39,264,n27)(n39,266,n29)(n39,267,n31)(n39,271,n33)(n39,273,n35)(n39,274,n38)(n39,279,n38)(n40,0,n4)(n40,250,n4)(n40,251,n7)(n40,252,n8)(n40,253,n8)(n40,254,n11)(n40,255,n13)(n40,256,n15)(n40,257,n17)(n40,258,n19)(n40,261,n22)(n40,262,n22)(n40,263,n25)(n40,264,n27)(n40,266,n29)(n40,267,n31)(n40,271,n33)(n40,273,n35)(n40,274,n38)(n40,279,n38)(n40,281,n41)(n40,288,n42)(n41,0,nodeT)(n41,250,nodeT)(n41,251,nodeT)(n41,252,nodeT)(n41,253,nodeT)(n41,254,nodeT)(n41,255,nodeT)(n41,256,nodeT)(n41,257,nodeT)(n41,258,nodeT)(n41,261,nodeT)(n41,262,nodeT)(n41,263,nodeT)(n41,264,nodeT)(n41,266,nodeT)(n41,267,nodeT)(n41,271,nodeT)(n41,273,nodeT)(n41,274,nodeT)(n41,279,nodeT)(n42,0,nodeT)(n42,250,nodeT)(n42,251,nodeT)(n42,252,nodeT)(n42,253,nodeT)(n42,254,nodeT)(n42,255,nodeT)(n42,256,nodeT)(n42,257,nodeT)(n42,258,nodeT)(n42,261,nodeT)(n42,262,nodeT)(n42,263,nodeT)(n42,264,nodeT)(n42,266,nodeT)(n42,267,nodeT)(n42,271,nodeT)(n42,273,nodeT)(n42,274,nodeT)(n42,279,nodeT)(n42,281,nodeT)(n43,0,n4)(n43,250,n4)(n43,251,n7)(n43,252,n8)(n43,253,n8)(n43,254,n11)(n43,255,n13)(n43,256,n15)(n43,257,n17)(n43,258,n19)(n43,261,n22)(n43,262,n22)(n43,263,n25)(n43,264,n27)(n43,266,n29)(n43,267,n31)(n43,271,n33)(n43,273,n35)(n43,274,n38)(n43,279,n38)(n43,281,n41)(n43,288,n44)(n43,291,n44)(n44,0,nodeT)(n44,250,nodeT)(n44,251,nodeT)(n44,252,nodeT)(n44,253,nodeT)(n44,254,nodeT)(n44,255,nodeT)(n44,256,nodeT)(n44,257,nodeT)(n44,258,nodeT)(n44,261,nodeT)(n44,262,nodeT)(n44,263,nodeT)(n44,264,nodeT)(n44,266,nodeT)(n44,267,nodeT)(n44,271,nodeT)(n44,273,nodeT)(n44,274,nodeT)(n44,279,nodeT)(n44,281,nodeT)(n44,288,nodeT)(n45,0,n4)(n45,250,n4)(n45,251,n7)(n45,252,n8)(n45,253,n8)(n45,254,n11)(n45,255,n13)(n45,256,n15)(n45,257,n17)(n45,258,n19)(n45,261,n22)(n45,262,n22)(n45,263,n25)(n45,264,n27)(n45,266,n29)(n45,267,n31)(n45,271,n33)(n45,273,n35)(n45,274,n38)(n45,279,n38)(n45,281,n41)(n45,288,n44)(n45,291,n46)(n46,0,nodeT)(n46,250,nodeT)(n46,251,nodeT)(n46,252,nodeT)(n46,253,nodeT)(n46,254,nodeT)(n46,255,nodeT)(n46,256,nodeT)(n46,257,nodeT)(n46,258,nodeT)(n46,261,nodeT)(n46,262,nodeT)(n46,263,nodeT)(n46,264,nodeT)(n46,266,nodeT)(n46,267,nodeT)(n46,271,nodeT)(n46,273,nodeT)(n46,274,nodeT)(n46,279,nodeT)(n46,281,nodeT)(n46,288,nodeT)(n46,291,nodeT)(n47,0,n4)(n47,250,n4)(n47,251,n7)(n47,252,n8)(n47,253,n8)(n47,254,n11)(n47,255,n13)(n47,256,n15)(n47,257,n17)(n47,258,n19)(n47,261,n22)(n47,262,n22)(n47,263,n25)(n47,264,n27)(n47,266,n29)(n47,267,n31)(n47,271,n33)(n47,273,n35)(n47,274,n38)(n47,279,n38)(n47,281,n41)(n47,288,n44)(n47,291,n46)(n47,292,n46)(n47,296,n48)(n48,0,nodeT)(n48,250,nodeT)(n48,251,nodeT)(n48,252,nodeT)(n48,253,nodeT)(n48,254,nodeT)(n48,255,nodeT)(n48,256,nodeT)(n48,257,nodeT)(n48,258,nodeT)(n48,261,nodeT)(n48,262,nodeT)(n48,263,nodeT)(n48,264,nodeT)(n48,266,nodeT)(n48,267,nodeT)(n48,271,nodeT)(n48,273,nodeT)(n48,274,nodeT)(n48,279,nodeT)(n48,281,nodeT)(n48,288,nodeT)(n48,291,nodeT)(n48,292,nodeT)(n49,0,n4)(n49,250,n4)(n49,251,n7)(n49,252,n8)(n49,253,n8)(n49,254,n11)(n49,255,n13)(n49,256,n15)(n49,257,n17)(n49,258,n19)(n49,261,n22)(n49,262,n22)(n49,263,n25)(n49,264,n27)(n49,266,n29)(n49,267,n31)(n49,271,n33)(n49,273,n35)(n49,274,n38)(n49,279,n38)(n49,281,n41)(n49,288,n44)(n49,291,n46)(n49,292,n46)(n49,296,n50)(n49,299,n50)(n50,0,nodeT)(n50,250,nodeT)(n50,251,nodeT)(n50,252,nodeT)(n50,253,nodeT)(n50,254,nodeT)(n50,255,nodeT)(n50,256,nodeT)(n50,257,nodeT)(n50,258,nodeT)(n50,261,nodeT)(n50,262,nodeT)(n50,263,nodeT)(n50,264,nodeT)(n50,266,nodeT)(n50,267,nodeT)(n50,271,nodeT)(n50,273,nodeT)(n50,274,nodeT)(n50,279,nodeT)(n50,281,nodeT)(n50,288,nodeT)(n50,291,nodeT)(n50,292,nodeT)(n50,296,nodeT)(n51,0,n4)(n51,250,n4)(n51,251,n7)(n51,252,n8)(n51,253,n8)(n51,254,n11)(n51,255,n13)(n51,256,n15)(n51,257,n17)(n51,258,n19)(n51,261,n22)(n51,262,n22)(n51,263,n25)(n51,264,n27)(n51,266,n29)(n51,267,n31)(n51,271,n33)(n51,273,n35)(n51,274,n38)(n51,279,n38)(n51,281,n41)(n51,288,n44)(n51,291,n46)(n51,292,n46)(n51,296,n50)(n51,299,n52)(n52,0,nodeT)(n52,250,nodeT)(n52,251,nodeT)(n52,252,nodeT)(n52,253,nodeT)(n52,254,nodeT)(n52,255,nodeT)(n52,256,nodeT)(n52,257,nodeT)(n52,258,nodeT)(n52,261,nodeT)(n52,262,nodeT)(n52,263,nodeT)(n52,264,nodeT)(n52,266,nodeT)(n52,267,nodeT)(n52,271,nodeT)(n52,273,nodeT)(n52,274,nodeT)(n52,279,nodeT)(n52,281,nodeT)(n52,288,nodeT)(n52,291,nodeT)(n52,292,nodeT)(n52,296,nodeT)(n52,299,nodeT)(n53,0,n4)(n53,250,n4)(n53,251,n7)(n53,252,n8)(n53,253,n8)(n53,254,n11)(n53,255,n13)(n53,256,n15)(n53,257,n17)(n53,258,n19)(n53,261,n22)(n53,262,n22)(n53,263,n25)(n53,264,n27)(n53,266,n29)(n53,267,n31)(n53,271,n33)(n53,273,n35)(n53,274,n38)(n53,279,n38)(n53,281,n41)(n53,288,n44)(n53,291,n46)(n53,292,n46)(n53,296,n50)(n53,299,n52)(n53,300,n52)(n54,0,n4)(n54,250,n4)(n54,251,n7)(n54,252,n8)(n54,253,n8)(n54,254,n11)(n54,255,n13)(n54,256,n15)(n54,257,n17)(n54,258,n19)(n54,261,n22)(n54,262,n22)(n54,263,n25)(n54,264,n27)(n54,266,n29)(n54,267,n31)(n54,271,n33)(n54,273,n35)(n54,274,n38)(n54,279,n38)(n54,281,n41)(n54,288,n44)(n54,291,n46)(n54,292,n46)(n54,296,n50)(n54,299,n52)(n54,300,n52)(n54,312,n55)(n55,0,nodeT)(n55,250,nodeT)(n55,251,nodeT)(n55,252,nodeT)(n55,253,nodeT)(n55,254,nodeT)(n55,255,nodeT)(n55,256,nodeT)(n55,257,nodeT)(n55,258,nodeT)(n55,261,nodeT)(n55,262,nodeT)(n55,263,nodeT)(n55,264,nodeT)(n55,266,nodeT)(n55,267,nodeT)(n55,271,nodeT)(n55,273,nodeT)(n55,274,nodeT)(n55,279,nodeT)(n55,281,nodeT)(n55,288,nodeT)(n55,291,nodeT)(n55,292,nodeT)(n55,296,nodeT)(n55,299,nodeT)(n55,300,nodeT)(n56,0,n4)(n56,250,n4)(n56,251,n7)(n56,252,n8)(n56,253,n8)(n56,254,n11)(n56,255,n13)(n56,256,n15)(n56,257,n17)(n56,258,n19)(n56,261,n22)(n56,262,n22)(n56,263,n25)(n56,264,n27)(n56,266,n29)(n56,267,n31)(n56,271,n33)(n56,273,n35)(n56,274,n38)(n56,279,n38)(n56,281,n41)(n56,288,n44)(n56,291,n46)(n56,292,n46)(n56,296,n50)(n56,299,n52)(n56,300,n52)(n56,312,n55)(n56,323,n57)(n57,0,nodeT)(n57,250,nodeT)(n57,251,nodeT)(n57,252,nodeT)(n57,253,nodeT)(n57,254,nodeT)(n57,255,nodeT)(n57,256,nodeT)(n57,257,nodeT)(n57,258,nodeT)(n57,261,nodeT)(n57,262,nodeT)(n57,263,nodeT)(n57,264,nodeT)(n57,266,nodeT)(n57,267,nodeT)(n57,271,nodeT)(n57,273,nodeT)(n57,274,nodeT)(n57,279,nodeT)(n57,281,nodeT)(n57,288,nodeT)(n57,291,nodeT)(n57,292,nodeT)(n57,296,nodeT)(n57,299,nodeT)(n57,300,nodeT)(n57,312,nodeT)(n58,0,n4)(n58,250,n4)(n58,251,n7)(n58,252,n8)(n58,253,n8)(n58,254,n11)(n58,255,n13)(n58,256,n15)(n58,257,n17)(n58,258,n19)(n58,261,n22)(n58,262,n22)(n58,263,n25)(n58,264,n27)(n58,266,n29)(n58,267,n31)(n58,271,n33)(n58,273,n35)(n58,274,n38)(n58,279,n38)(n58,281,n41)(n58,288,n44)(n58,291,n46)(n58,292,n46)(n58,296,n50)(n58,299,n52)(n58,300,n52)(n58,312,n55)(n58,323,n57)(n58,328,n59)(n59,0,nodeT)(n59,250,nodeT)(n59,251,nodeT)(n59,252,nodeT)(n59,253,nodeT)(n59,254,nodeT)(n59,255,nodeT)(n59,256,nodeT)(n59,257,nodeT)(n59,258,nodeT)(n59,261,nodeT)(n59,262,nodeT)(n59,263,nodeT)(n59,264,nodeT)(n59,266,nodeT)(n59,267,nodeT)(n59,271,nodeT)(n59,273,nodeT)(n59,274,nodeT)(n59,279,nodeT)(n59,281,nodeT)(n59,288,nodeT)(n59,291,nodeT)(n59,292,nodeT)(n59,296,nodeT)(n59,299,nodeT)(n59,300,nodeT)(n59,312,nodeT)(n59,323,nodeT)(n60,0,n4)(n60,250,n4)(n60,251,n7)(n60,252,n8)(n60,253,n8)(n60,254,n11)(n60,255,n13)(n60,256,n15)(n60,257,n17)(n60,258,n19)(n60,261,n22)(n60,262,n22)(n60,263,n25)(n60,264,n27)(n60,266,n29)(n60,267,n31)(n60,271,n33)(n60,273,n35)(n60,274,n38)(n60,279,n38)(n60,281,n41)(n60,288,n44)(n60,291,n46)(n60,292,n46)(n60,296,n50)(n60,299,n52)(n60,300,n52)(n60,312,n55)(n60,323,n57)(n60,328,n59)(n60,329,n61)(n61,0,nodeT)(n61,250,nodeT)(n61,251,nodeT)(n61,252,nodeT)(n61,253,nodeT)(n61,254,nodeT)(n61,255,nodeT)(n61,256,nodeT)(n61,257,nodeT)(n61,258,nodeT)(n61,261,nodeT)(n61,262,nodeT)(n61,263,nodeT)(n61,264,nodeT)(n61,266,nodeT)(n61,267,nodeT)(n61,271,nodeT)(n61,273,nodeT)(n61,274,nodeT)(n61,279,nodeT)(n61,281,nodeT)(n61,288,nodeT)(n61,291,nodeT)(n61,292,nodeT)(n61,296,nodeT)(n61,299,nodeT)(n61,300,nodeT)(n61,312,nodeT)(n61,323,nodeT)(n61,328,nodeT)(n62,0,n4)(n62,250,n4)(n62,251,n7)(n62,252,n8)(n62,253,n8)(n62,254,n11)(n62,255,n13)(n62,256,n15)(n62,257,n17)(n62,258,n19)(n62,261,n22)(n62,262,n22)(n62,263,n25)(n62,264,n27)(n62,266,n29)(n62,267,n31)(n62,271,n33)(n62,273,n35)(n62,274,n38)(n62,279,n38)(n62,281,n41)(n62,288,n44)(n62,291,n46)(n62,292,n46)(n62,296,n50)(n62,299,n52)(n62,300,n52)(n62,312,n55)(n62,323,n57)(n62,328,n59)(n62,329,n59)(n62,336,n57)(n63,0,n4)(n63,250,n4)(n63,251,n7)(n63,252,n8)(n63,253,n8)(n63,254,n11)(n63,255,n13)(n63,256,n15)(n63,257,n17)(n63,258,n19)(n63,261,n22)(n63,262,n22)(n63,263,n25)(n63,264,n27)(n63,266,n29)(n63,267,n31)(n63,271,n33)(n63,273,n35)(n63,274,n38)(n63,279,n38)(n63,281,n41)(n63,288,n44)(n63,291,n46)(n63,292,n46)(n63,296,n50)(n63,299,n52)(n63,300,n52)(n63,312,n55)(n63,323,n57)(n63,328,n57)(n63,329,n55)(n63,336,n55)(n63,347,n48)(n64,0,n4)(n64,250,n4)(n64,251,n7)(n64,252,n8)(n64,253,n8)(n64,254,n11)(n64,255,n13)(n64,256,n15)(n64,257,n17)(n64,258,n19)(n64,261,n22)(n64,262,n22)(n64,263,n25)(n64,264,n27)(n64,266,n29)(n64,267,n31)(n64,271,n33)(n64,273,n35)(n64,274,n38)(n64,279,n38)(n64,281,n41)(n64,288,n44)(n64,291,n46)(n64,292,n46)(n64,296,n50)(n64,299,n52)(n64,300,n52)(n64,312,n55)(n64,323,n48)(n64,328,n44)(n64,329,n44)(n64,336,n42)(n64,347,n33)(n64,360,n19)(n65,0,n4)(n65,250,n4)(n65,251,n7)(n65,252,n8)(n65,253,n8)(n65,254,n11)(n65,255,n13)(n65,256,n15)(n65,257,n17)(n65,258,n19)(n65,261,n22)(n65,262,n22)(n65,263,n25)(n65,264,n27)(n65,266,n29)(n65,267,n31)(n65,271,n33)(n65,273,n35)(n65,274,n38)(n65,279,n38)(n65,281,n41)(n65,288,n44)(n65,291,n46)(n65,292,n46)(n65,296,n50)(n65,299,n52)(n65,300,n52)(n65,312,n52)(n65,323,n44)(n65,328,n42)(n65,329,n42)(n65,336,n38)(n65,347,n29)(n65,360,n66)(n65,383,n4)(n66,0,nodeT)(n66,250,nodeT)(n66,251,nodeT)(n67,0,n4)(n67,250,n4)(n67,251,n7)(n67,252,n8)(n67,253,n8)(n67,254,n11)(n67,255,n13)(n67,256,n15)(n67,257,n17)(n67,258,n19)(n67,261,n22)(n67,262,n22)(n67,263,n25)(n67,264,n27)(n67,266,n29)(n67,267,n31)(n67,271,n33)(n67,273,n35)(n67,274,n38)(n67,279,n38)(n67,281,n41)(n67,288,n44)(n67,291,n46)(n67,292,n46)(n67,296,n50)(n67,299,n52)(n67,300,n52)(n67,312,n50)(n67,323,n42)(n67,328,n41)(n67,329,n41)(n67,336,n35)(n67,347,n22)(n67,360,n4)(n67,383,n4)(n67,389,n4)(n68,0,n4)(n68,250,n4)(n68,251,n7)(n68,252,n8)(n68,253,n8)(n68,254,n11)(n68,255,n13)(n68,256,n15)(n68,257,n17)(n68,258,n19)(n68,261,n22)(n68,262,n22)(n68,263,n25)(n68,264,n27)(n68,266,n29)(n68,267,n31)(n68,271,n33)(n68,273,n35)(n68,274,n38)(n68,279,n38)(n68,281,n41)(n68,288,n44)(n68,291,n46)(n68,292,n46)(n68,296,n48)(n68,299,n48)(n68,300,n46)(n68,312,n41)(n68,323,n33)(n68,328,n27)(n68,329,n25)(n68,336,n15)(n68,347,n4)(n68,360,n4)(n68,383,n4)(n68,389,n4)(n68,392,n4)(n69,0,n4)(n69,250,n4)(n69,251,n7)(n69,252,n8)(n69,253,n8)(n69,254,n11)(n69,255,n13)(n69,256,n15)(n69,257,n17)(n69,258,n19)(n69,261,n22)(n69,262,n22)(n69,263,n25)(n69,264,n27)(n69,266,n29)(n69,267,n31)(n69,271,n33)(n69,273,n35)(n69,274,n38)(n69,279,n38)(n69,281,n41)(n69,288,n44)(n69,291,n46)(n69,292,n46)(n69,296,n46)(n69,299,n44)(n69,300,n42)(n69,312,n38)(n69,323,n29)(n69,328,n20)(n69,329,n20)(n69,336,n66)(n69,347,n4)(n69,360,n4)(n69,383,n4)(n69,389,n4)(n69,392,n4)(n69,409,n4)(n70,0,n4)(n70,250,n4)(n70,251,n7)(n70,252,n8)(n70,253,n8)(n70,254,n11)(n70,255,n13)(n70,256,n15)(n70,257,n17)(n70,258,n19)(n70,261,n22)(n70,262,n22)(n70,263,n25)(n70,264,n27)(n70,266,n29)(n70,267,n31)(n70,271,n33)(n70,273,n35)(n70,274,n38)(n70,279,n38)(n70,281,n41)(n70,288,n42)(n70,291,n42)(n70,292,n42)(n70,296,n38)(n70,299,n38)(n70,300,n38)(n70,312,n25)(n70,323,n66)(n70,328,n4)(n70,329,n4)(n70,336,n4)(n70,347,n4)(n70,360,n4)(n70,383,n4)(n70,389,n4)(n70,392,n4)(n70,409,n4)(n70,413,n4)(n71,0,n4)(n71,250,n4)(n71,251,n7)(n71,252,n8)(n71,253,n8)(n71,254,n11)(n71,255,n13)(n71,256,n15)(n71,257,n17)(n71,258,n19)(n71,261,n22)(n71,262,n22)(n71,263,n25)(n71,264,n27)(n71,266,n29)(n71,267,n31)(n71,271,n33)(n71,273,n35)(n71,274,n38)(n71,279,n38)(n71,281,n41)(n71,288,n42)(n71,291,n38)(n71,292,n38)(n71,296,n36)(n71,299,n33)(n71,300,n33)(n71,312,n19)(n71,323,n4)(n71,328,n4)(n71,329,n4)(n71,336,n4)(n71,347,n4)(n71,360,n4)(n71,383,n4)(n71,389,n4)(n71,392,n4)(n71,409,n4)(n71,413,n4)(n71,426,n4)(n72,0,n4)(n72,250,n4)(n72,251,n7)(n72,252,n8)(n72,253,n8)(n72,254,n11)(n72,255,n13)(n72,256,n15)(n72,257,n17)(n72,258,n19)(n72,261,n22)(n72,262,n22)(n72,263,n25)(n72,264,n27)(n72,266,n29)(n72,267,n31)(n72,271,n33)(n72,273,n35)(n72,274,n38)(n72,279,n38)(n72,281,n38)(n72,288,n33)(n72,291,n33)(n72,292,n31)(n72,296,n25)(n72,299,n20)(n72,300,n20)(n72,312,n4)(n72,323,n4)(n72,328,n4)(n72,329,n4)(n72,336,n4)(n72,347,n4)(n72,360,n4)(n72,383,n4)(n72,389,n4)(n72,392,n4)(n72,409,n4)(n72,413,n4)(n72,426,n4)(n72,431,n4)(n73,0,n4)(n73,250,n4)(n73,251,n7)(n73,252,n8)(n73,253,n8)(n73,254,n11)(n73,255,n13)(n73,256,n15)(n73,257,n17)(n73,258,n19)(n73,261,n22)(n73,262,n22)(n73,263,n25)(n73,264,n27)(n73,266,n29)(n73,267,n31)(n73,271,n33)(n73,273,n35)(n73,274,n38)(n73,279,n36)(n73,281,n35)(n73,288,n29)(n73,291,n22)(n73,292,n20)(n73,296,n17)(n73,299,n11)(n73,300,n8)(n73,312,n4)(n73,323,n4)(n73,328,n4)(n73,329,n4)(n73,336,n4)(n73,347,n4)(n73,360,n4)(n73,383,n4)(n73,389,n4)(n73,392,n4)(n73,409,n4)(n73,413,n4)(n73,426,n4)(n73,431,n4)(n73,442,n4)(n74,0,n4)(n74,250,n4)(n74,251,n7)(n74,252,n8)(n74,253,n8)(n74,254,n11)(n74,255,n13)(n74,256,n15)(n74,257,n17)(n74,258,n19)(n74,261,n22)(n74,262,n22)(n74,263,n25)(n74,264,n27)(n74,266,n29)(n74,267,n31)(n74,271,n33)(n74,273,n35)(n74,274,n38)(n74,279,n33)(n74,281,n33)(n74,288,n22)(n74,291,n20)(n74,292,n19)(n74,296,n11)(n74,299,n7)(n74,300,n4)(n74,312,n4)(n74,323,n4)(n74,328,n4)(n74,329,n4)(n74,336,n4)(n74,347,n4)(n74,360,n4)(n74,383,n4)(n74,389,n4)(n74,392,n4)(n74,409,n4)(n74,413,n4)(n74,426,n4)(n74,431,n4)(n74,442,n4)(n74,448,n4)(n74,451,n4)(n75,0,n4)(n75,250,n4)(n75,251,n7)(n75,252,n8)(n75,253,n8)(n75,254,n11)(n75,255,n13)(n75,256,n15)(n75,257,n17)(n75,258,n19)(n75,261,n22)(n75,262,n22)(n75,263,n25)(n75,264,n27)(n75,266,n29)(n75,267,n31)(n75,271,n33)(n75,273,n35)(n75,274,n35)(n75,279,n33)(n75,281,n29)(n75,288,n20)(n75,291,n15)(n75,292,n13)(n75,296,n7)(n75,299,n4)(n75,300,n4)(n75,312,n4)(n75,323,n4)(n75,328,n4)(n75,329,n4)(n75,336,n4)(n75,347,n4)(n75,360,n4)(n75,383,n4)(n75,389,n4)(n75,392,n4)(n75,409,n4)(n75,413,n4)(n75,426,n4)(n75,431,n4)(n75,442,n4)(n75,448,n4)(n75,451,n4)(n76,0,n4)(n76,250,n4)(n76,251,n7)(n76,252,n8)(n76,253,n8)(n76,254,n11)(n76,255,n13)(n76,256,n15)(n76,257,n17)(n76,258,n19)(n76,261,n22)(n76,262,n22)(n76,263,n25)(n76,264,n27)(n76,266,n29)(n76,267,n31)(n76,271,n31)(n76,273,n29)(n76,274,n27)(n76,279,n20)(n76,281,n17)(n76,288,n4)(n76,291,n4)(n76,292,n4)(n76,296,n4)(n76,299,n4)(n76,300,n4)(n76,312,n4)(n76,323,n4)(n76,328,n4)(n76,329,n4)(n76,336,n4)(n76,347,n4)(n76,360,n4)(n76,383,n4)(n76,389,n4)(n76,392,n4)(n76,409,n4)(n76,413,n4)(n76,426,n4)(n76,431,n4)(n76,442,n4)(n76,448,n4)(n76,451,n4)(n76,454,n4)(n77,0,n4)(n77,250,n4)(n77,251,n7)(n77,252,n8)(n77,253,n8)(n77,254,n11)(n77,255,n13)(n77,256,n15)(n77,257,n17)(n77,258,n19)(n77,261,n22)(n77,262,n22)(n77,263,n25)(n77,264,n27)(n77,266,n27)(n77,267,n25)(n77,271,n20)(n77,273,n17)(n77,274,n15)(n77,279,n7)(n77,281,n4)(n77,288,n4)(n77,291,n4)(n77,292,n4)(n77,296,n4)(n77,299,n4)(n77,300,n4)(n77,312,n4)(n77,323,n4)(n77,328,n4)(n77,329,n4)(n77,336,n4)(n77,347,n4)(n77,360,n4)(n77,383,n4)(n77,389,n4)(n77,392,n4)(n77,409,n4)(n77,413,n4)(n77,426,n4)(n77,431,n4)(n77,442,n4)(n77,448,n4)(n77,451,n4)(n77,454,n4)(n77,463,n4)(n78,0,n4)(n78,250,n4)(n78,251,n7)(n78,252,n8)(n78,253,n8)(n78,254,n11)(n78,255,n13)(n78,256,n15)(n78,257,n17)(n78,258,n19)(n78,261,n22)(n78,262,n22)(n78,263,n25)(n78,264,n27)(n78,266,n25)(n78,267,n22)(n78,271,n19)(n78,273,n15)(n78,274,n13)(n78,279,n4)(n78,281,n4)(n78,288,n4)(n78,291,n4)(n78,292,n4)(n78,296,n4)(n78,299,n4)(n78,300,n4)(n78,312,n4)(n78,323,n4)(n78,328,n4)(n78,329,n4)(n78,336,n4)(n78,347,n4)(n78,360,n4)(n78,383,n4)(n78,389,n4)(n78,392,n4)(n78,409,n4)(n78,413,n4)(n78,426,n4)(n78,431,n4)(n78,442,n4)(n78,448,n4)(n78,451,n4)(n78,454,n4)(n78,463,n4)(n78,471,n4)(n79,0,n4)(n79,250,n4)(n79,251,n7)(n79,252,n8)(n79,253,n8)(n79,254,n11)(n79,255,n13)(n79,256,n15)(n79,257,n17)(n79,258,n19)(n79,261,n20)(n79,262,n19)(n79,263,n17)(n79,264,n15)(n79,266,n11)(n79,267,n8)(n79,271,n4)(n79,273,n4)(n79,274,n4)(n79,279,n4)(n79,281,n4)(n79,288,n4)(n79,291,n4)(n79,292,n4)(n79,296,n4)(n79,299,n4)(n79,300,n4)(n79,312,n4)(n79,323,n4)(n79,328,n4)(n79,329,n4)(n79,336,n4)(n79,347,n4)(n79,360,n4)(n79,383,n4)(n79,389,n4)(n79,392,n4)(n79,409,n4)(n79,413,n4)(n79,426,n4)(n79,431,n4)(n79,442,n4)(n79,448,n4)(n79,451,n4)(n79,454,n4)(n79,463,n4)(n79,471,n4)(n79,472,n4)(n80,0,n4)(n80,250,n4)(n80,251,n7)(n80,252,n8)(n80,253,n8)(n80,254,n11)(n80,255,n13)(n80,256,n15)(n80,257,n17)(n80,258,n19)(n80,261,n13)(n80,262,n11)(n80,263,n8)(n80,264,n66)(n80,266,n4)(n80,267,n4)(n80,271,n4)(n80,273,n4)(n80,274,n4)(n80,279,n4)(n80,281,n4)(n80,288,n4)(n80,291,n4)(n80,292,n4)(n80,296,n4)(n80,299,n4)(n80,300,n4)(n80,312,n4)(n80,323,n4)(n80,328,n4)(n80,329,n4)(n80,336,n4)(n80,347,n4)(n80,360,n4)(n80,383,n4)(n80,389,n4)(n80,392,n4)(n80,409,n4)(n80,413,n4)(n80,426,n4)(n80,431,n4)(n80,442,n4)(n80,448,n4)(n80,451,n4)(n80,454,n4)(n80,463,n4)(n80,471,n4)(n80,472,n4)(n80,481,n4)(n81,0,n4)(n81,250,n4)(n81,251,n7)(n81,252,n8)(n81,253,n8)(n81,254,n11)(n81,255,n13)(n81,256,n15)(n81,257,n17)(n81,258,n15)(n81,261,n8)(n81,262,n66)(n81,263,n7)(n81,264,n4)(n81,266,n4)(n81,267,n4)(n81,271,n4)(n81,273,n4)(n81,274,n4)(n81,279,n4)(n81,281,n4)(n81,288,n4)(n81,291,n4)(n81,292,n4)(n81,296,n4)(n81,299,n4)(n81,300,n4)(n81,312,n4)(n81,323,n4)(n81,328,n4)(n81,329,n4)(n81,336,n4)(n81,347,n4)(n81,360,n4)(n81,383,n4)(n81,389,n4)(n81,392,n4)(n81,409,n4)(n81,413,n4)(n81,426,n4)(n81,431,n4)(n81,442,n4)(n81,448,n4)(n81,451,n4)(n81,454,n4)(n81,463,n4)(n81,471,n4)(n81,472,n4)(n81,481,n4)(n81,485,n4)(n82,0,n4)(n82,250,n4)(n82,251,n7)(n82,252,n8)(n82,253,n8)(n82,254,n11)(n82,255,n13)(n82,256,n11)(n82,257,n8)(n82,258,n66)(n82,261,n4)(n82,262,n4)(n82,263,n4)(n82,264,n4)(n82,266,n4)(n82,267,n4)(n82,271,n4)(n82,273,n4)(n82,274,n4)(n82,279,n4)(n82,281,n4)(n82,288,n4)(n82,291,n4)(n82,292,n4)(n82,296,n4)(n82,299,n4)(n82,300,n4)(n82,312,n4)(n82,323,n4)(n82,328,n4)(n82,329,n4)(n82,336,n4)(n82,347,n4)(n82,360,n4)(n82,383,n4)(n82,389,n4)(n82,392,n4)(n82,409,n4)(n82,413,n4)(n82,426,n4)(n82,431,n4)(n82,442,n4)(n82,448,n4)(n82,451,n4)(n82,454,n4)(n82,463,n4)(n82,471,n4)(n82,472,n4)(n82,481,n4)(n82,485,n4)(n82,487,n4) </transitions>
      </mdd>
      <args> b[0][] </args>
      <args> b[1][] </args>
      <args> b[2][] </args>
      <args> b[3][] </args>
      <args> b[4][] </args>
      <args> b[5][] </args>
      <args> b[6][] </args>
      <args> b[7][] </args>
      <args> b[8][] </args>
      <args> b[9][] </args>
      <args> b[10][] </args>
      <args> b[11][] </args>
      <args> b[12][] </args>
      <args> b[13][] </args>
      <args> b[14][] </args>
      <args> b[15][] </args>
      <args> b[16][] </args>
      <args> b[17][] </args>
      <args> b[18][] </args>
      <args> b[19][] </args>
      <args> b[20][] </args>
      <args> b[21][] </args>
      <args> b[22][] </args>
    </group>
    <cardinality>
      <list> b[][] </list>
      <values> 0 250 251 252 253 254 255 256 257 258 261 262 263 264 266 267 271 273 274 279 281 288 291 292 296 299 300 312 323 328 329 336 347 360 383 389 392 409 413 426 431 442 448 451 454 463 471 472 481 485 487 491 </values>
      <occurs> 9 1 1 3 1 1 1 1 1 1 2 1 1 1 1 1 1 1 2 1 1 2 2 1 2 2 1 1 1 1 1 1 1 1 1 1 1 1 1 1 1 1 1 2 1 1 1 1 1 1 1 1 </occurs>
    </cardinality>
    <lex class="symmetryBreaking">
      <list> b[0][] </list>
      <list> b[1][] </list>
      <list> b[2][] </list>
      <list> b[3][] </list>
      <list> b[4][] </list>
      <list> b[5][] </list>
      <list> b[6][] </list>
      <list> b[7][] </list>
      <list> b[8][] </list>
      <list> b[9][] </list>
      <list> b[10][] </list>
      <list> b[11][] </list>
      <list> b[12][] </list>
      <list> b[13][] </list>
      <list> b[14][] </list>
      <list> b[15][] </list>
      <list> b[16][] </list>
      <list> b[17][] </list>
      <list> b[18][] </list>
      <list> b[19][] </list>
      <list> b[20][] </list>
      <list> b[21][] </list>
      <list> b[22][] </list>
      <operator> ge </operator>
    </lex>
    <count>
      <list> b[][0] </list>
      <values> 0 </values>
      <condition> (eq,x) </condition>
    </count>
  </constraints>
  <objectives>
    <maximize> x </maximize>
  </objectives>
</instance>
